#------------------------------------------------------------------------------
#$Date: 2016-05-06 05:21:54 +0300 (Fri, 06 May 2016) $
#$Revision: 182802 $
#$URL: svn://www.crystallography.net/cod/cif/7/22/39/7223986.cif $
#------------------------------------------------------------------------------
#
# This file is available in the Crystallography Open Database (COD),
# http://www.crystallography.net/
#
# All data on this site have been placed in the public domain by the
# contributors.
#
data_7223986
loop_
_publ_author_name
'Dobrowolski, Micha\/l A'
'Cyra\'nski, Micha\/l K'
'Wr\'obel, Zbigniew'
_publ_section_title
;
 Cyclic \p-electron delocalization in non-planar linear acenes.
;
_journal_issue                   17
_journal_name_full               'Physical chemistry chemical physics : PCCP'
_journal_page_first              11813
_journal_page_last               11820
_journal_paper_doi               10.1039/c5cp07056b
_journal_volume                  18
_journal_year                    2016
_chemical_formula_moiety         'C10 Cl8'
_chemical_formula_sum            'C10 Cl8'
_chemical_formula_weight         403.70
_chemical_name_common            Perchloronaphthalene
_chemical_name_systematic
; 
 Octachloronaphthalene 
;
_space_group_IT_number           14
_symmetry_cell_setting           monoclinic
_symmetry_space_group_name_Hall  '-P 2yn'
_symmetry_space_group_name_H-M   'P 1 21/n 1'
_atom_sites_solution_primary     direct
_atom_sites_solution_secondary   difmap
_audit_creation_method           SHELXL-97
_audit_update_record
;
2015-11-13 deposited with the CCDC.
2016-01-22 downloaded from the CCDC.
;
_cell_angle_alpha                90.00
_cell_angle_beta                 98.317(9)
_cell_angle_gamma                90.00
_cell_formula_units_Z            4
_cell_length_a                   9.7244(12)
_cell_length_b                   7.1739(8)
_cell_length_c                   18.2816(17)
_cell_measurement_temperature    100(2)
_cell_volume                     1261.9(2)
_computing_structure_refinement  'SHELXL-97 (Sheldrick, 1997)'
_computing_structure_solution    'SHELXS-97 (Sheldrick, 1990)'
_diffrn_ambient_temperature      100(2)
_diffrn_measured_fraction_theta_full 0.991
_diffrn_measured_fraction_theta_max 0.991
_diffrn_measurement_device_type  'Xcalibur, Sapphire2, large Be window'
_diffrn_radiation_monochromator  graphite
_diffrn_radiation_source         'fine-focus sealed tube'
_diffrn_radiation_type           MoK\a
_diffrn_radiation_wavelength     0.71073
_diffrn_reflns_av_R_equivalents  0.0316
_diffrn_reflns_av_sigmaI/netI    0.0390
_diffrn_reflns_limit_h_max       11
_diffrn_reflns_limit_h_min       -11
_diffrn_reflns_limit_k_max       8
_diffrn_reflns_limit_k_min       -7
_diffrn_reflns_limit_l_max       21
_diffrn_reflns_limit_l_min       -21
_diffrn_reflns_number            9328
_diffrn_reflns_theta_full        25.00
_diffrn_reflns_theta_max         25.00
_diffrn_reflns_theta_min         3.05
_exptl_absorpt_coefficient_mu    1.756
_exptl_absorpt_correction_T_max  0.839
_exptl_absorpt_correction_T_min  0.736
_exptl_absorpt_correction_type   multi-scan
_exptl_absorpt_process_details
;
CrysAlis RED, Oxford Diffraction Ltd.,
Version 1.171.33.41 (release 06-05-2009 CrysAlis171 .NET)
(compiled May  6 2009,17:20:42)
Empirical absorption correction using spherical harmonics,
implemented in SCALE3 ABSPACK scaling algorithm. 
;
_exptl_crystal_colour            Colourless
_exptl_crystal_density_diffrn    2.125
_exptl_crystal_density_method    'not measured'
_exptl_crystal_description       Needle
_exptl_crystal_F_000             784
_exptl_crystal_recrystallization_method
'Re-crystallisation from solvent: ethanol'
_exptl_crystal_size_max          0.3
_exptl_crystal_size_mid          0.15
_exptl_crystal_size_min          0.1
_refine_diff_density_max         0.248
_refine_diff_density_min         -0.225
_refine_diff_density_rms         0.052
_refine_ls_extinction_coef       0.00330(8)
_refine_ls_extinction_expression Fc^*^=kFc[1+0.001xFc^2^\l^3^/sin(2\q)]^-1/4^
_refine_ls_extinction_method     SHELXL
_refine_ls_goodness_of_fit_ref   1.031
_refine_ls_matrix_type           full
_refine_ls_number_parameters     164
_refine_ls_number_reflns         2214
_refine_ls_number_restraints     0
_refine_ls_restrained_S_all      1.031
_refine_ls_R_factor_all          0.0301
_refine_ls_R_factor_gt           0.0197
_refine_ls_shift/su_max          0.001
_refine_ls_shift/su_mean         0.000
_refine_ls_structure_factor_coef Fsqd
_refine_ls_weighting_details
'calc w=1/[\s^2^(Fo^2^)+(0.0000P)^2^+0.0000P] where P=(Fo^2^+2Fc^2^)/3'
_refine_ls_weighting_scheme      calc
_refine_ls_wR_factor_gt          0.0252
_refine_ls_wR_factor_ref         0.0257
_reflns_number_gt                1717
_reflns_number_total             2235
_reflns_threshold_expression     >2sigma(I)
_cod_data_source_file            c5cp07056b2.cif
_cod_data_source_block           pcln
_cod_depositor_comments
;
The following automatic conversions were performed:

'_symmetry_cell_setting' value 'Monoclinic' changed to 'monoclinic'
according to
/usr/data/users/saulius/crontab/automatic-downloads/rss-feeds/RSC/lib/dictionaries/cif_core.dic
dictionary named 'cif_core.dic' version 2.4.2 from 2011-04-26.

'_exptl_absorpt_correction_type' value 'Multi-scan' changed to
'multi-scan' according to
/usr/data/users/saulius/crontab/automatic-downloads/rss-feeds/RSC/lib/dictionaries/cif_core.dic
dictionary named 'cif_core.dic' version 2.4.2 from 2011-04-26.

Automatic conversion script
Id: cif_fix_values 4268 2015-11-12 08:31:59Z antanas 

 Adding full bibliography for 7223985--7223988.cif.
;
_cod_original_cell_volume        1262.0(2)
_cod_original_sg_symbol_H-M      P21/n
_cod_database_code               7223986
loop_
_symmetry_equiv_pos_as_xyz
'x, y, z'
'-x+1/2, y+1/2, -z+1/2'
'-x, -y, -z'
'x-1/2, -y-1/2, z-1/2'
loop_
_atom_site_label
_atom_site_type_symbol
_atom_site_fract_x
_atom_site_fract_y
_atom_site_fract_z
_atom_site_U_iso_or_equiv
_atom_site_adp_type
_atom_site_occupancy
_atom_site_symmetry_multiplicity
_atom_site_calc_flag
Cl1 Cl 0.14367(5) 0.68422(6) 0.12517(2) 0.02121(13) Uani 1 1 d
Cl7 Cl 0.05114(5) 0.61872(6) 0.42301(3) 0.02388(13) Uani 1 1 d
Cl4 Cl 0.70130(5) 0.50083(7) 0.32391(3) 0.02287(12) Uani 1 1 d
Cl5 Cl 0.59258(5) 0.75575(6) 0.43403(2) 0.02255(12) Uani 1 1 d
Cl8 Cl 0.01356(5) 0.57155(6) 0.25713(3) 0.02094(12) Uani 1 1 d
Cl2 Cl 0.40725(5) 0.62082(7) 0.05883(2) 0.02437(13) Uani 1 1 d
Cl6 Cl 0.33303(5) 0.73611(6) 0.50985(2) 0.02464(13) Uani 1 1 d
Cl3 Cl 0.68023(5) 0.50685(6) 0.15577(3) 0.02400(13) Uani 1 1 d
C1 C 0.29316(18) 0.6319(2) 0.18448(9) 0.0130(4) Uani 1 1 d
C2 C 0.4121(2) 0.6078(2) 0.15324(9) 0.0156(4) Uani 1 1 d
C3 C 0.53927(19) 0.5694(2) 0.19730(10) 0.0154(4) Uani 1 1 d
C4 C 0.54919(18) 0.5769(2) 0.27306(9) 0.0138(4) Uani 1 1 d
C10 C 0.43102(18) 0.6269(2) 0.30730(9) 0.0120(4) Uani 1 1 d
C9 C 0.29738(18) 0.6270(2) 0.26335(9) 0.0121(4) Uani 1 1 d
C5 C 0.43990(19) 0.6763(2) 0.38411(9) 0.0137(4) Uani 1 1 d
C6 C 0.32359(19) 0.6807(2) 0.41800(9) 0.0149(4) Uani 1 1 d
C7 C 0.19260(19) 0.6406(2) 0.37708(10) 0.0152(4) Uani 1 1 d
C8 C 0.17866(18) 0.6213(2) 0.30154(9) 0.0136(4) Uani 1 1 d
loop_
_atom_site_aniso_label
_atom_site_aniso_U_11
_atom_site_aniso_U_22
_atom_site_aniso_U_33
_atom_site_aniso_U_23
_atom_site_aniso_U_13
_atom_site_aniso_U_12
Cl1 0.0207(3) 0.0254(3) 0.0157(3) 0.0003(2) -0.0037(2) 0.0031(2)
Cl7 0.0206(3) 0.0283(3) 0.0257(3) -0.0007(2) 0.0135(2) -0.0003(2)
Cl4 0.0131(3) 0.0324(3) 0.0227(3) 0.0015(2) 0.0013(2) 0.0040(2)
Cl5 0.0184(3) 0.0302(3) 0.0177(3) -0.0038(2) -0.0020(2) -0.0049(2)
Cl8 0.0119(3) 0.0256(3) 0.0250(3) -0.0031(2) 0.0016(2) -0.0019(2)
Cl2 0.0330(3) 0.0288(3) 0.0122(3) -0.0003(2) 0.0065(2) 0.0007(3)
Cl6 0.0299(3) 0.0326(3) 0.0119(3) -0.0026(2) 0.0051(2) 0.0021(3)
Cl3 0.0184(3) 0.0312(3) 0.0247(3) -0.0058(2) 0.0109(2) -0.0007(2)
C1 0.0128(11) 0.0098(10) 0.0150(11) -0.0019(8) -0.0030(9) -0.0001(8)
C2 0.0253(12) 0.0108(10) 0.0109(10) -0.0012(8) 0.0034(9) -0.0017(9)
C3 0.0157(11) 0.0115(10) 0.0207(11) -0.0019(8) 0.0082(9) -0.0019(9)
C4 0.0115(11) 0.0107(10) 0.0188(11) 0.0009(8) 0.0007(9) -0.0010(8)
C10 0.0144(11) 0.0083(9) 0.0136(11) 0.0023(8) 0.0030(9) -0.0011(8)
C9 0.0151(11) 0.0055(9) 0.0161(11) -0.0013(8) 0.0037(9) -0.0004(9)
C5 0.0138(11) 0.0108(10) 0.0157(11) 0.0021(8) -0.0008(9) -0.0016(8)
C6 0.0223(12) 0.0109(10) 0.0115(10) 0.0007(8) 0.0025(9) 0.0008(9)
C7 0.0166(11) 0.0101(10) 0.0209(11) 0.0005(8) 0.0092(9) 0.0013(9)
C8 0.0119(11) 0.0097(9) 0.0185(11) -0.0015(8) -0.0004(9) -0.0002(8)
loop_
_atom_type_symbol
_atom_type_description
_atom_type_scat_dispersion_real
_atom_type_scat_dispersion_imag
_atom_type_scat_source
C C 0.0033 0.0016 'International Tables Vol C Tables 4.2.6.8 and 6.1.1.4'
Cl Cl 0.1484 0.1585 'International Tables Vol C Tables 4.2.6.8 and 6.1.1.4'
loop_
_geom_angle_atom_site_label_1
_geom_angle_atom_site_label_2
_geom_angle_atom_site_label_3
_geom_angle
C2 C1 C9 120.71(16)
C2 C1 Cl1 116.76(14)
C9 C1 Cl1 122.37(14)
C1 C2 C3 120.79(16)
C1 C2 Cl2 120.47(15)
C3 C2 Cl2 118.73(14)
C4 C3 C2 119.90(16)
C4 C3 Cl3 120.69(14)
C2 C3 Cl3 119.38(13)
C3 C4 C10 120.43(16)
C3 C4 Cl4 117.51(14)
C10 C4 Cl4 121.71(13)
C9 C10 C4 118.53(15)
C9 C10 C5 118.10(16)
C4 C10 C5 123.36(17)
C10 C9 C8 117.26(15)
C10 C9 C1 117.19(15)
C8 C9 C1 125.55(17)
C6 C5 C10 120.77(17)
C6 C5 Cl5 117.28(14)
C10 C5 Cl5 121.59(14)
C5 C6 C7 119.87(16)
C5 C6 Cl6 121.25(15)
C7 C6 Cl6 118.88(14)
C8 C7 C6 120.23(16)
C8 C7 Cl7 120.78(15)
C6 C7 Cl7 118.98(14)
C7 C8 C9 121.13(17)
C7 C8 Cl8 116.26(14)
C9 C8 Cl8 122.40(13)
loop_
_geom_bond_atom_site_label_1
_geom_bond_atom_site_label_2
_geom_bond_distance
Cl1 C1 1.7244(17)
Cl7 C7 1.7194(17)
Cl4 C4 1.7183(18)
Cl5 C5 1.7234(18)
Cl8 C8 1.7284(18)
Cl2 C2 1.7223(17)
Cl6 C6 1.7150(17)
Cl3 C3 1.7197(17)
C1 C2 1.373(2)
C1 C9 1.437(2)
C2 C3 1.402(2)
C3 C4 1.375(2)
C4 C10 1.431(2)
C10 C9 1.426(2)
C10 C5 1.439(2)
C9 C8 1.434(2)
C5 C6 1.366(2)
C6 C7 1.410(2)
C7 C8 1.375(2)
