#------------------------------------------------------------------------------
#$Date: 2016-02-16 14:49:47 +0200 (Tue, 16 Feb 2016) $
#$Revision: 176465 $
#$URL: svn://www.crystallography.net/cod/cif/9/00/73/9007373.cif $
#------------------------------------------------------------------------------
#
# This file is available in the Crystallography Open Database (COD),
# http://www.crystallography.net/. The original data for this entry
# were provided the American Mineralogist Crystal Structure Database,
# http://rruff.geo.arizona.edu/AMS/amcsd.php
#
# The file may be used within the scientific community so long as
# proper attribution is given to the journal article from which the
# data were obtained.
#
data_9007373
loop_
_publ_author_name
'Caracas, R.'
'Gonze, X.'
_publ_section_title
;First-principles study of the electronic properties of A2B3 minerals, with
 A=Bi,Sb and B=S,Se Note: Hypothetical sulphosalt structure derived from
 density functional theory
;
_journal_name_full               'Physics and Chemistry of Minerals'
_journal_page_first              295
_journal_page_last               300
_journal_paper_doi               10.1007/s00269-005-0470-y
_journal_volume                  32
_journal_year                    2005
_chemical_formula_sum            'S3 Sb2'
_chemical_name_mineral           Stibnite
_space_group_IT_number           62
_symmetry_space_group_name_Hall  '-P 2ac 2n'
_symmetry_space_group_name_H-M   'P n m a'
_cell_angle_alpha                90
_cell_angle_beta                 90
_cell_angle_gamma                90
_cell_length_a                   11.311
_cell_length_b                   3.836
_cell_length_c                   11.229
_cell_volume                     487.215
_exptl_crystal_density_diffrn    4.631
_cod_original_formula_sum        'Sb2 S3'
_cod_database_code               9007373
loop_
_symmetry_equiv_pos_as_xyz
x,y,z
x,1/2-y,z
-x,1/2+y,-z
1/2-x,1/2+y,1/2+z
1/2+x,1/2-y,1/2-z
1/2+x,y,1/2-z
1/2-x,-y,1/2+z
-x,-y,-z
loop_
_atom_site_label
_atom_site_fract_x
_atom_site_fract_y
_atom_site_fract_z
Sb1 0.52930 0.25000 0.17390
Sb2 0.64950 0.75000 0.46400
S1 0.62510 0.75000 0.06140
S2 0.70790 0.25000 0.30830
S3 0.45030 0.75000 0.37690
