#------------------------------------------------------------------------------
#$Date: 2016-02-14 06:40:26 +0200 (Sun, 14 Feb 2016) $
#$Revision: 176432 $
#$URL: svn://www.crystallography.net/cod/cif/4/02/98/4029897.cif $
#------------------------------------------------------------------------------
#
# This file is available in the Crystallography Open Database (COD),
# http://www.crystallography.net/
#
# All data on this site have been placed in the public domain by the
# contributors.
#
data_4029897
loop_
_publ_author_name
'Vo, Hoa-Lan'
'Arthur, Jordan L.'
'Capdevila-Cortada, Mar\,cal'
'Lapidus, Saul H.'
'Stephens, Peter W.'
'Novoa, Juan J.'
'Arif, Atta M.'
'Nagi, Ramneet K.'
'Bartl, Michael H.'
'Miller, Joel S.'
_publ_section_title
;
 Structure and Properties of Nitrogen-Rich 1,4-Dicyanotetrazine, C4N6: A
 Comparative Study with Related Tetracyano Electron Acceptors.
;
_journal_issue                   17
_journal_name_full               'The Journal of organic chemistry'
_journal_page_first              8189
_journal_page_last               8201
_journal_paper_doi               10.1021/jo5014004
_journal_volume                  79
_journal_year                    2014
_chemical_formula_sum            'C4 N6'
_chemical_formula_weight         132.10
_chemical_name_systematic
;
 ?
;
_space_group_IT_number           64
_symmetry_cell_setting           orthorhombic
_symmetry_space_group_name_Hall  '-C 2ac 2'
_symmetry_space_group_name_H-M   'C m c a'
_atom_sites_solution_hydrogens   none
_atom_sites_solution_primary     direct
_atom_sites_solution_secondary   difmap
_audit_creation_method           SHELXL-97
_cell_angle_alpha                90.00
_cell_angle_beta                 90.00
_cell_angle_gamma                90.00
_cell_formula_units_Z            4
_cell_length_a                   6.6745(5)
_cell_length_b                   9.0337(5)
_cell_length_c                   9.4283(6)
_cell_measurement_reflns_used    373
_cell_measurement_temperature    150(1)
_cell_measurement_theta_max      27.485
_cell_measurement_theta_min      1.018
_cell_volume                     568.48(6)
_computing_cell_refinement       DENZO-SMN
_computing_data_collection       'Nonius COLLECT'
_computing_data_reduction        DENZO-SMN
_computing_molecular_graphics    'WinGX, Ortep3'
_computing_structure_refinement  'SHELXL-97 (Sheldrick, 1997)'
_computing_structure_solution    SIR97
_diffrn_ambient_temperature      150(1)
_diffrn_measured_fraction_theta_full 0.989
_diffrn_measured_fraction_theta_max 0.989
_diffrn_measurement_device_type  'Nonius KappaCCD Diffractometer'
_diffrn_measurement_method       'Phi plus Omega scan'
_diffrn_radiation_monochromator  graphite
_diffrn_radiation_source         'fine-focus sealed tube'
_diffrn_radiation_type           MoK\a
_diffrn_radiation_wavelength     0.71073
_diffrn_reflns_av_R_equivalents  0.0158
_diffrn_reflns_av_sigmaI/netI    0.0254
_diffrn_reflns_limit_h_max       8
_diffrn_reflns_limit_h_min       -8
_diffrn_reflns_limit_k_max       11
_diffrn_reflns_limit_k_min       -11
_diffrn_reflns_limit_l_max       12
_diffrn_reflns_limit_l_min       -12
_diffrn_reflns_number            613
_diffrn_reflns_theta_full        27.48
_diffrn_reflns_theta_max         27.48
_diffrn_reflns_theta_min         4.37
_exptl_absorpt_coefficient_mu    0.115
_exptl_absorpt_correction_T_max  0.9886
_exptl_absorpt_correction_T_min  0.9740
_exptl_absorpt_correction_type   multi-scan
_exptl_absorpt_process_details   'DENZO-SMN (Otwinowski & Minor, 1997)'
_exptl_crystal_colour            orange
_exptl_crystal_density_diffrn    1.543
_exptl_crystal_density_method    'not measured'
_exptl_crystal_description       prism
_exptl_crystal_F_000             264
_exptl_crystal_size_max          0.23
_exptl_crystal_size_mid          0.23
_exptl_crystal_size_min          0.10
_refine_diff_density_max         0.137
_refine_diff_density_min         -0.149
_refine_diff_density_rms         0.036
_refine_ls_extinction_coef       0.052(10)
_refine_ls_extinction_expression Fc^*^=kFc[1+0.001xFc^2^\l^3^/sin(2\q)]^-1/4^
_refine_ls_extinction_method     SHELXL
_refine_ls_goodness_of_fit_ref   1.101
_refine_ls_hydrogen_treatment    none
_refine_ls_matrix_type           full
_refine_ls_number_parameters     29
_refine_ls_number_reflns         352
_refine_ls_number_restraints     0
_refine_ls_restrained_S_all      1.101
_refine_ls_R_factor_all          0.0378
_refine_ls_R_factor_gt           0.0326
_refine_ls_shift/su_max          0.000
_refine_ls_shift/su_mean         0.000
_refine_ls_structure_factor_coef Fsqd
_refine_ls_weighting_details
'calc w=1/[\s^2^(Fo^2^)+(0.0379P)^2^+0.2385P] where P=(Fo^2^+2Fc^2^)/3'
_refine_ls_weighting_scheme      calc
_refine_ls_wR_factor_gt          0.0801
_refine_ls_wR_factor_ref         0.0828
_reflns_number_gt                307
_reflns_number_total             352
_reflns_threshold_expression     >2sigma(I)
_cod_data_source_file            jo5014004_si_001.cif
_cod_data_source_block           jsm038
_cod_depositor_comments
;
The following automatic conversions were performed:

'_exptl_absorpt_correction_type' value 'Multi-scan' changed to
'multi-scan' according to
/home/saulius/struct/COD-crude-data--automatic-downloads/rss-feeds/ACS/lib/dictionaries/cif_core.dic
dictionary named 'cif_core.dic' version 2.4.2 from 2011-04-26.

Automatic conversion script
Id: cif_fix_values 2281 2013-09-26 08:29:07Z andrius 

 Adding full bibliography for 4029897--4029898.cif.
;
_cod_original_sg_symbol_Hall     '-C 2bc 2'
_cod_database_code               4029897
loop_
_symmetry_equiv_pos_as_xyz
'x, y, z'
'-x, -y+1/2, z+1/2'
'x, -y, -z'
'-x+1/2, y, -z+1/2'
'x+1/2, y+1/2, z'
'-x+1/2, -y+1, z+1/2'
'x+1/2, -y+1/2, -z'
'-x+1, y+1/2, -z+1/2'
'-x, -y, -z'
'x, y-1/2, -z-1/2'
'-x, y, z'
'x-1/2, -y, z-1/2'
'-x+1/2, -y+1/2, -z'
'x+1/2, y, -z-1/2'
'-x+1/2, y+1/2, z'
'x, -y+1/2, z-1/2'
loop_
_atom_site_label
_atom_site_type_symbol
_atom_site_fract_x
_atom_site_fract_y
_atom_site_fract_z
_atom_site_U_iso_or_equiv
_atom_site_adp_type
_atom_site_occupancy
_atom_site_symmetry_multiplicity
_atom_site_calc_flag
_atom_site_refinement_flags
N1 N 0.5000 0.15901(15) 0.24175(15) 0.0368(4) Uani 1 2 d S
N2 N 0.31960(14) 0.43955(9) 0.03961(9) 0.0263(4) Uani 1 1 d .
C1 C 0.5000 0.25738(16) 0.16619(15) 0.0273(4) Uani 1 2 d S
C2 C 0.5000 0.38630(15) 0.07515(15) 0.0238(4) Uani 1 2 d S
loop_
_atom_site_aniso_label
_atom_site_aniso_U_11
_atom_site_aniso_U_22
_atom_site_aniso_U_33
_atom_site_aniso_U_23
_atom_site_aniso_U_13
_atom_site_aniso_U_12
N1 0.0340(8) 0.0400(8) 0.0363(8) 0.0107(6) 0.000 0.000
N2 0.0247(5) 0.0274(5) 0.0268(5) 0.0018(3) 0.0001(3) 0.0001(3)
C1 0.0241(7) 0.0315(8) 0.0262(7) 0.0015(6) 0.000 0.000
C2 0.0272(7) 0.0234(7) 0.0207(7) -0.0020(5) 0.000 0.000
loop_
_atom_type_symbol
_atom_type_description
_atom_type_scat_dispersion_real
_atom_type_scat_dispersion_imag
_atom_type_scat_source
C C 0.0033 0.0016 'International Tables Vol C Tables 4.2.6.8 and 6.1.1.4'
N N 0.0061 0.0033 'International Tables Vol C Tables 4.2.6.8 and 6.1.1.4'
loop_
_geom_angle_atom_site_label_1
_geom_angle_atom_site_label_2
_geom_angle_atom_site_label_3
_geom_angle
_geom_angle_site_symmetry_1
N2 N2 C2 115.96(7) 3_565
N1 C1 C2 177.68(16) .
N2 C2 N2 128.08(13) 11_655
N2 C2 C1 115.95(7) 11_655
N2 C2 C1 115.95(6) .
loop_
_geom_bond_atom_site_label_1
_geom_bond_atom_site_label_2
_geom_bond_distance
_geom_bond_site_symmetry_2
N1 C1 1.1390(19) .
N2 N2 1.3232(16) 3_565
N2 C2 1.3392(11) .
C1 C2 1.447(2) .
C2 N2 1.3392(11) 11_655
loop_
_geom_torsion_atom_site_label_1
_geom_torsion_atom_site_label_2
_geom_torsion_atom_site_label_3
_geom_torsion_atom_site_label_4
_geom_torsion
_geom_torsion_site_symmetry_1
_geom_torsion_site_symmetry_4
N2 N2 C2 N2 -0.5(2) 3_565 11_655
N2 N2 C2 C1 177.75(11) 3_565 .
N1 C1 C2 N2 89.25(11) . 11_655
N1 C1 C2 N2 -89.25(11) . .
loop_
_refln_index_h
_refln_index_k
_refln_index_l
_refln_F_squared_calc
_refln_F_squared_meas
_refln_F_squared_sigma
_refln_observed_status
2 0 0 2877.04 2733.67 89.03 o
4 0 0 2110.61 2326.87 56.49 o
6 0 0 2419.43 2587.73 64.72 o
8 0 0 19.72 13.16 2.19 o
2 2 0 5101.08 4961.56 111.88 o
4 2 0 671.08 703.34 13.00 o
6 2 0 3.73 3.46 0.76 o
8 2 0 258.31 293.13 13.96 o
0 4 0 258.73 270.11 9.86 o
2 4 0 285.88 265.70 7.14 o
4 4 0 86.42 98.15 2.62 o
6 4 0 15.15 13.58 0.93 o
8 4 0 8.75 9.95 3.96 o
0 6 0 759.44 814.53 20.04 o
2 6 0 93.11 88.20 3.04 o
4 6 0 1.32 0.93 0.59 o
6 6 0 145.73 136.88 4.99 o
0 8 0 50.53 50.98 2.03 o
2 8 0 761.96 760.24 16.29 o
4 8 0 212.83 237.07 9.13 o
6 8 0 1.92 1.69 1.77 o
0 10 0 287.33 327.94 10.07 o
2 10 0 4.82 3.20 0.84 o
4 10 0 5.08 5.14 3.04 o
1 1 1 3838.35 3617.64 119.62 o
3 1 1 1255.70 1168.88 16.36 o
5 1 1 902.44 902.60 12.70 o
7 1 1 12.57 9.94 1.05 o
0 2 1 31.97 39.20 1.44 o
2 2 1 556.03 552.75 7.34 o
4 2 1 90.00 82.39 1.71 o
6 2 1 0.20 0.10 0.38 o
8 2 1 12.44 8.26 1.03 o
1 3 1 2.22 2.47 0.16 o
3 3 1 716.54 762.19 11.23 o
5 3 1 11.91 10.20 0.63 o
7 3 1 15.16 16.31 1.14 o
0 4 1 1229.14 1152.10 26.46 o
2 4 1 77.92 67.13 1.25 o
4 4 1 72.70 69.66 1.27 o
6 4 1 89.17 83.27 1.88 o
8 4 1 0.08 1.60 1.67 o
1 5 1 323.06 319.26 6.05 o
3 5 1 0.64 0.71 0.36 o
5 5 1 135.00 116.59 2.72 o
7 5 1 13.65 14.89 2.12 o
0 6 1 73.57 70.19 2.28 o
2 6 1 5.72 5.14 0.30 o
4 6 1 0.01 0.52 0.97 o
6 6 1 8.48 8.90 1.35 o
1 7 1 89.29 92.85 1.88 o
3 7 1 359.06 366.42 8.48 o
5 7 1 117.65 115.75 2.92 o
0 8 1 184.83 177.62 3.55 o
2 8 1 178.81 187.18 4.44 o
4 8 1 101.77 110.52 4.26 o
6 8 1 43.31 45.38 2.96 o
1 9 1 3.85 3.93 0.89 o
3 9 1 463.60 505.28 11.18 o
5 9 1 8.18 5.54 2.28 o
0 10 1 31.66 29.78 1.60 o
2 10 1 71.96 76.87 3.03 o
4 10 1 38.15 40.97 3.19 o
1 11 1 11.43 8.14 1.43 o
2 0 2 5358.23 5632.20 89.79 o
4 0 2 545.85 542.18 11.01 o
6 0 2 65.14 60.78 2.45 o
8 0 2 238.55 258.81 11.93 o
1 1 2 3331.03 3269.19 34.88 o
3 1 2 468.68 511.90 6.46 o
5 1 2 460.17 476.15 7.99 o
7 1 2 110.98 114.50 2.75 o
2 2 2 1.03 0.93 0.20 o
4 2 2 123.60 118.45 2.24 o
6 2 2 415.07 432.22 7.76 o
8 2 2 4.95 10.52 1.52 o
1 3 2 80.05 73.42 1.16 o
3 3 2 401.91 401.34 5.24 o
5 3 2 55.83 48.82 1.42 o
7 3 2 2.92 2.88 0.73 o
0 4 2 9.50 20.92 0.93 o
2 4 2 34.41 36.37 0.83 o
4 4 2 17.03 19.01 1.14 o
6 4 2 7.25 4.02 0.38 o
8 4 2 9.27 9.17 2.34 o
1 5 2 180.74 185.18 3.23 o
3 5 2 86.22 91.43 1.84 o
5 5 2 117.88 107.92 3.00 o
7 5 2 3.88 4.81 1.86 o
0 6 2 988.62 990.73 39.71 o
2 6 2 0.85 0.79 0.63 o
4 6 2 21.02 19.53 1.01 o
6 6 2 126.90 126.05 3.45 o
1 7 2 208.17 202.75 10.54 o
3 7 2 365.70 379.22 7.66 o
5 7 2 63.13 62.51 2.15 o
0 8 2 282.69 296.96 8.98 o
2 8 2 169.11 167.76 3.07 o
4 8 2 14.76 17.16 1.35 o
6 8 2 58.47 60.14 8.10 o
1 9 2 42.69 38.15 1.86 o
3 9 2 66.51 62.57 2.53 o
5 9 2 15.59 16.50 3.29 o
0 10 2 0.04 -0.08 0.59 o
2 10 2 222.81 250.13 8.79 o
4 10 2 76.03 79.59 3.98 o
1 11 2 1.26 0.96 2.70 o
1 1 3 682.62 645.82 8.57 o
3 1 3 754.51 762.92 9.56 o
5 1 3 283.17 279.78 4.80 o
7 1 3 0.04 0.61 0.92 o
2 2 3 789.70 776.30 8.87 o
4 2 3 564.85 601.10 7.55 o
6 2 3 551.80 574.65 10.54 o
8 2 3 14.85 14.87 1.31 o
1 3 3 20.53 19.15 0.53 o
3 3 3 171.45 172.11 2.30 o
5 3 3 24.85 28.63 1.11 o
7 3 3 0.57 0.65 1.64 o
0 4 3 446.67 477.39 11.60 o
2 4 3 736.47 743.38 9.94 o
4 4 3 82.57 85.83 1.61 o
6 4 3 49.50 44.03 1.31 o
1 5 3 96.48 93.53 1.87 o
3 5 3 4.42 1.95 0.51 o
5 5 3 51.68 44.09 1.36 o
7 5 3 3.88 1.38 1.54 o
0 6 3 0.63 1.43 0.51 o
2 6 3 534.69 548.84 8.37 o
4 6 3 152.80 163.42 4.30 o
6 6 3 0.68 2.32 0.88 o
1 7 3 2.38 2.95 0.61 o
3 7 3 295.43 307.31 5.80 o
5 7 3 22.10 19.33 1.34 o
0 8 3 24.61 19.66 1.43 o
2 8 3 3.29 2.83 0.53 o
4 8 3 2.67 3.76 0.71 o
1 9 3 47.06 44.12 1.97 o
3 9 3 61.55 61.29 6.03 o
5 9 3 59.20 63.25 5.11 o
0 10 3 9.90 11.89 1.35 o
2 10 3 30.47 25.33 2.25 o
4 10 3 7.20 5.35 1.47 o
1 11 3 0.00 0.66 1.31 o
0 0 4 1952.49 1864.82 43.71 o
2 0 4 110.34 116.12 2.71 o
4 0 4 0.35 0.25 0.51 o
6 0 4 100.95 94.42 3.63 o
8 0 4 38.04 46.57 5.15 o
1 1 4 3.97 4.64 0.36 o
3 1 4 352.22 338.58 4.42 o
5 1 4 3.73 3.77 0.50 o
7 1 4 9.74 4.31 1.73 o
0 2 4 444.94 415.05 8.79 o
2 2 4 149.22 131.02 2.03 o
4 2 4 3.64 3.66 0.42 o
6 2 4 47.55 50.47 3.42 o
8 2 4 11.69 14.23 2.53 o
1 3 4 1876.71 1988.06 24.58 o
3 3 4 16.30 11.90 1.05 o
5 3 4 782.01 782.67 11.40 o
7 3 4 79.17 70.39 3.50 o
0 4 4 201.73 191.79 4.24 o
2 4 4 170.79 164.83 2.80 o
4 4 4 76.11 75.39 1.55 o
6 4 4 26.94 21.32 1.39 o
1 5 4 2.31 2.27 0.30 o
3 5 4 925.31 966.50 13.86 o
5 5 4 13.94 12.08 0.69 o
7 5 4 40.23 40.17 4.60 o
0 6 4 63.95 57.50 2.36 o
2 6 4 490.73 465.86 9.31 o
4 6 4 177.87 181.66 3.67 o
6 6 4 16.33 15.69 1.34 o
1 7 4 2.60 1.52 0.48 o
3 7 4 81.73 82.40 1.82 o
5 7 4 10.82 12.80 2.99 o
0 8 4 311.34 293.19 9.49 o
2 8 4 0.68 0.30 0.38 o
4 8 4 18.31 16.26 1.39 o
1 9 4 45.26 47.13 4.09 o
3 9 4 3.80 3.99 1.27 o
0 10 4 60.39 60.18 4.14 o
2 10 4 0.96 0.26 1.14 o
1 11 4 35.29 34.34 4.30 o
1 1 5 50.82 52.42 1.06 o
3 1 5 368.93 387.57 6.58 o
5 1 5 0.82 0.39 0.44 o
7 1 5 18.53 18.73 1.82 o
0 2 5 488.48 526.13 11.17 o
2 2 5 478.56 463.06 6.57 o
4 2 5 39.39 38.96 1.01 o
6 2 5 65.46 58.40 1.94 o
1 3 5 129.11 136.00 2.15 o
3 3 5 12.79 12.70 0.54 o
5 3 5 44.94 49.22 1.65 o
7 3 5 8.09 10.76 1.77 o
0 4 5 2460.44 2595.81 43.73 o
2 4 5 14.30 13.88 0.64 o
4 4 5 44.67 43.62 1.21 o
6 4 5 356.36 373.25 7.55 o
1 5 5 68.36 61.63 1.94 o
3 5 5 115.28 110.06 2.37 o
5 5 5 18.59 21.56 1.03 o
0 6 5 125.73 126.93 4.48 o
2 6 5 270.66 273.79 4.55 o
4 6 5 53.14 51.92 1.57 o
6 6 5 15.44 14.61 2.11 o
1 7 5 72.88 61.89 1.67 o
3 7 5 0.06 0.34 0.42 o
5 7 5 48.42 57.20 3.06 o
0 8 5 33.46 37.55 1.94 o
2 8 5 64.86 68.87 2.13 o
4 8 5 32.59 31.71 2.70 o
1 9 5 21.42 16.35 1.81 o
3 9 5 1.08 -1.56 1.56 o
0 10 5 9.08 2.87 1.43 o
2 10 5 57.56 55.53 6.88 o
0 0 6 202.20 213.36 8.64 o
2 0 6 265.49 257.36 5.43 o
4 0 6 97.53 103.56 3.13 o
6 0 6 20.89 17.63 1.35 o
1 1 6 158.81 155.67 4.87 o
3 1 6 24.61 24.81 0.89 o
5 1 6 85.00 77.62 1.94 o
7 1 6 3.14 1.68 1.48 o
0 2 6 55.70 62.56 2.20 o
2 2 6 88.29 90.16 1.83 o
4 2 6 48.38 51.42 1.28 o
6 2 6 21.16 14.67 2.28 o
1 3 6 313.49 312.19 4.47 o
3 3 6 304.68 305.15 5.05 o
5 3 6 258.04 266.55 4.70 o
7 3 6 1.47 -1.24 2.53 o
0 4 6 890.27 896.78 16.53 o
2 4 6 756.05 768.73 11.67 o
4 4 6 440.01 457.87 7.58 o
6 4 6 211.19 225.27 5.65 o
1 5 6 24.05 28.31 0.91 o
3 5 6 495.74 516.50 8.55 o
5 5 6 73.86 73.37 2.21 o
0 6 6 211.29 193.16 5.58 o
2 6 6 119.35 116.09 2.79 o
4 6 6 82.55 81.37 2.90 o
6 6 6 52.18 47.17 3.89 o
1 7 6 2.28 0.78 0.62 o
3 7 6 74.64 82.05 2.06 o
5 7 6 9.49 8.91 2.16 o
0 8 6 0.04 0.08 0.76 o
2 8 6 2.98 3.71 1.77 o
4 8 6 0.96 0.90 5.23 o
1 9 6 0.00 -0.06 0.74 o
3 9 6 17.61 15.35 2.53 o
0 10 6 24.53 19.57 2.36 o
1 1 7 69.47 72.61 2.07 o
3 1 7 2.73 2.61 0.56 o
5 1 7 39.30 34.29 1.25 o
7 1 7 7.76 8.49 1.98 o
0 2 7 868.15 859.54 18.32 o
2 2 7 7.14 7.91 0.56 o
4 2 7 14.12 11.18 1.31 o
6 2 7 138.86 143.87 6.17 o
1 3 7 0.42 0.38 0.42 o
3 3 7 10.97 10.71 0.80 o
5 3 7 0.08 1.08 1.22 o
0 4 7 196.80 214.04 4.99 o
2 4 7 494.89 489.82 8.45 o
4 4 7 88.06 95.93 2.45 o
6 4 7 35.28 30.10 1.69 o
1 5 7 85.49 88.25 1.85 o
3 5 7 53.27 50.19 1.58 o
5 5 7 39.72 35.07 2.49 o
0 6 7 243.19 233.06 6.52 o
2 6 7 39.71 41.62 1.40 o
4 6 7 0.07 0.19 0.80 o
1 7 7 0.19 1.71 0.69 o
3 7 7 5.05 3.91 0.62 o
0 8 7 19.93 19.15 1.52 o
2 8 7 4.60 4.90 1.48 o
1 9 7 25.30 20.62 1.77 o
0 0 8 199.02 206.87 9.48 o
2 0 8 3.57 2.36 0.84 o
4 0 8 6.01 4.55 0.93 o
6 0 8 57.68 51.23 3.88 o
1 1 8 21.43 20.87 1.10 o
3 1 8 27.49 26.82 1.04 o
5 1 8 28.21 25.43 1.31 o
0 2 8 62.21 61.03 2.53 o
2 2 8 12.51 11.29 0.76 o
4 2 8 0.54 0.05 0.61 o
6 2 8 9.30 7.87 1.12 o
1 3 8 44.71 41.53 1.30 o
3 3 8 708.95 756.33 13.84 o
5 3 8 0.04 0.21 1.14 o
0 4 8 5.02 3.46 0.76 o
2 4 8 0.41 0.60 0.59 o
4 4 8 0.42 0.42 0.97 o
1 5 8 334.93 331.98 5.32 o
3 5 8 4.75 4.73 0.71 o
5 5 8 260.83 279.88 13.17 o
0 6 8 237.47 257.19 6.35 o
2 6 8 73.15 77.78 2.31 o
4 6 8 67.27 62.02 3.45 o
1 7 8 0.85 0.07 0.67 o
3 7 8 36.20 30.87 3.04 o
0 8 8 7.35 2.70 1.27 o
2 8 8 99.39 101.09 5.02 o
1 1 9 111.67 109.57 2.51 o
3 1 9 18.33 17.67 1.73 o
5 1 9 92.68 90.67 3.61 o
0 2 9 17.45 15.86 1.43 o
2 2 9 383.78 400.06 8.94 o
4 2 9 144.44 154.61 3.90 o
1 3 9 16.36 14.00 0.93 o
3 3 9 85.48 87.42 3.25 o
5 3 9 1.70 1.12 2.15 o
0 4 9 259.67 260.75 6.69 o
2 4 9 24.62 20.85 1.60 o
4 4 9 0.14 1.71 3.25 o
1 5 9 9.82 8.18 0.74 o
3 5 9 0.15 0.49 0.71 o
0 6 9 201.20 185.75 6.00 o
2 6 9 1.61 0.45 0.89 o
1 7 9 2.32 -0.27 0.92 o
0 0 10 507.84 548.61 22.59 o
2 0 10 1.15 1.60 1.01 o
4 0 10 28.05 29.19 3.04 o
1 1 10 52.88 48.90 1.73 o
3 1 10 120.20 119.72 4.45 o
0 2 10 9.26 6.33 1.10 o
2 2 10 123.77 132.45 3.91 o
4 2 10 34.82 35.58 2.49 o
1 3 10 14.40 12.68 1.18 o
3 3 10 43.75 41.79 3.84 o
0 4 10 2.29 2.61 1.18 o
2 4 10 0.04 1.63 1.27 o
4 4 10 0.34 4.70 1.84 o
1 5 10 2.09 3.33 1.56 o
3 5 10 98.84 93.91 4.92 o
0 6 10 23.32 17.63 2.45 o
2 6 10 17.57 16.20 4.51 o
1 1 11 0.26 -0.76 4.05 o
3 1 11 176.65 194.24 7.03 o
0 2 11 0.72 3.29 1.52 o
2 2 11 24.20 26.25 4.47 o
1 3 11 45.00 41.51 2.49 o
3 3 11 0.00 1.06 1.45 o
0 4 11 0.30 -0.93 2.02 o
2 4 11 42.51 41.13 4.26 o
0 0 12 6.57 5.31 3.29 o
1 1 12 15.86 16.25 5.27 o
0 2 12 186.65 205.71 9.21 o
