#------------------------------------------------------------------------------
#$Date: 2016-02-13 21:28:24 +0200 (Sat, 13 Feb 2016) $
#$Revision: 176429 $
#$URL: svn://www.crystallography.net/cod/cif/4/12/40/4124042.cif $
#------------------------------------------------------------------------------
#
# This file is available in the Crystallography Open Database (COD),
# http://www.crystallography.net/
#
# All data on this site have been placed in the public domain by the
# contributors.
#
data_4124042
loop_
_publ_author_name
'Foster, M.D.'
'Friedrichs, O.D.'
'Bell, R.G.'
'Klinowski, J.'
'Paz, F.A.A.'
_publ_section_title
;
 Chemical evaluation of hypothetical uninodal zeolites
;
_journal_name_full               'Journal of the American Chemical Society'
_journal_page_first              9769
_journal_page_last               9775
_journal_volume                  126
_journal_year                    2004
_chemical_formula_sum            'O2 Si'
_chemical_name_systematic        'Si O2'
_space_group_IT_number           163
_symmetry_space_group_name_Hall  '-P 3 2c'
_symmetry_space_group_name_H-M   'P -3 1 c'
_cell_angle_alpha                90
_cell_angle_beta                 90
_cell_angle_gamma                120
_cell_formula_units_Z            12
_cell_length_a                   10.86794
_cell_length_b                   10.86794
_cell_length_c                   4.7239
_cell_volume                     483.199
_citation_journal_id_ASTM        JACSAT
_cod_data_source_file            Foster_JACSAT_2004_502.cif
_cod_data_source_block           O2Si1
_cod_original_cell_volume        483.1987
_cod_original_formula_sum        'O2 Si1'
_cod_database_code               4124042
loop_
_symmetry_equiv_pos_as_xyz
x,y,z
-y,x-y,z
-x+y,-x,z
-y,-x,-z+1/2
x,x-y,-z+1/2
-x+y,y,-z+1/2
-x,-y,-z
y,-x+y,-z
x-y,x,-z
y,x,z-1/2
-x,-x+y,z-1/2
x-y,-y,z-1/2
loop_
_atom_site_label
_atom_site_type_symbol
_atom_site_fract_x
_atom_site_fract_y
_atom_site_fract_z
_atom_site_occupancy
_atom_site_U_iso_or_equiv
O4 O-2 0.80174 0.60348 0.25 1 0.0
O3 O-2 0.5 0 0.5 1 0.0
Si1 Si+4 0.64641 0.15433 0.47128 1 0.0
O2 O-2 0.61166 0.38834 0.75 1 0.0
O1 O-2 0.62374 0.37626 0.25 1 0.0
