#------------------------------------------------------------------------------
#$Date: 2016-02-13 21:28:24 +0200 (Sat, 13 Feb 2016) $
#$Revision: 176429 $
#$URL: svn://www.crystallography.net/cod/cif/4/12/40/4124068.cif $
#------------------------------------------------------------------------------
#
# This file is available in the Crystallography Open Database (COD),
# http://www.crystallography.net/
#
# All data on this site have been placed in the public domain by the
# contributors.
#
data_4124068
loop_
_publ_author_name
'Foster, M.D.'
'Friedrichs, O.D.'
'Paz, F.A.A.'
'Bell, R.G.'
'Klinowski, J.'
_publ_section_title
;
 Chemical evaluation of hypothetical uninodal zeolites
;
_journal_name_full               'Journal of the American Chemical Society'
_journal_page_first              9769
_journal_page_last               9775
_journal_volume                  126
_journal_year                    2004
_chemical_formula_sum            'O2 Si'
_chemical_name_systematic        'Si O2'
_space_group_IT_number           15
_symmetry_space_group_name_Hall  '-C 2yc'
_symmetry_space_group_name_H-M   'C 1 2/c 1'
_cell_angle_alpha                90
_cell_angle_beta                 112.1066
_cell_angle_gamma                90
_cell_formula_units_Z            16
_cell_length_a                   8.69296
_cell_length_b                   6.0205
_cell_length_c                   11.46583
_cell_volume                     555.961
_citation_journal_id_ASTM        JACSAT
_cod_data_source_file            Foster_JACSAT_2004_539.cif
_cod_data_source_block           O2Si1
_cod_original_cell_volume        555.9608
_cod_original_formula_sum        'O2 Si1'
_cod_database_code               4124068
loop_
_symmetry_equiv_pos_as_xyz
x,y,z
-x,y,-z+1/2
-x,-y,-z
x,-y,z-1/2
x+1/2,y+1/2,z
-x+1/2,y+1/2,-z+1/2
-x+1/2,-y+1/2,-z
x+1/2,-y+1/2,z-1/2
loop_
_atom_site_label
_atom_site_type_symbol
_atom_site_fract_x
_atom_site_fract_y
_atom_site_fract_z
_atom_site_occupancy
_atom_site_U_iso_or_equiv
O3 O-2 0.26399 0.37544 0.74954 1 0.0
Si2 Si+4 0.90445 0.3376 0.88166 1 0.0
O1 O-2 0.75 0.75 0 1 0.0
O4 O-2 0.03285 0.37524 0.81458 1 0.0
Si1 Si+4 0.22786 0.41262 0.88169 1 0.0
O2 O-2 0 0.5 0 1 0.0
O5 O-2 0.8476 0.12479 0.94434 1 0.0
