#------------------------------------------------------------------------------
#$Date: 2017-10-14 23:18:49 +0300 (Sat, 14 Oct 2017) $
#$Revision: 202019 $
#$URL: file:///home/coder/svn-repositories/cod/cif/9/00/92/9009241.cif $
#------------------------------------------------------------------------------
#
# This file is available in the Crystallography Open Database (COD),
# http://www.crystallography.net/. The original data for this entry
# were provided the American Mineralogist Crystal Structure Database,
# http://rruff.geo.arizona.edu/AMS/amcsd.php
#
# The file may be used within the scientific community so long as
# proper attribution is given to the journal article from which the
# data were obtained.
#
data_9009241
loop_
_publ_author_name
'Park, J. H.'
'Yoo, C. S.'
'Iota, V.'
'Cynn, H.'
'Nicol, M. F.'
'Le Bihan, T.'
_publ_section_title
;
 Crystal structure of bent carbon dioxide phase IV
 Sample: P = 15 GPa, the authors do not think this is the correct structure
;
_journal_name_full               'Physical Review B'
_journal_page_first              014107
_journal_page_last               014107
_journal_paper_doi               10.1103/PhysRevB.68.014107
_journal_volume                  68
_journal_year                    2003
_chemical_formula_structural     CO2
_chemical_formula_sum            'C O2'
_space_group_IT_number           92
_symmetry_space_group_name_Hall  'P 4abw 2nw'
_symmetry_space_group_name_H-M   'P 41 21 2'
_cell_angle_alpha                90
_cell_angle_beta                 90
_cell_angle_gamma                90
_cell_length_a                   4.335
_cell_length_b                   4.335
_cell_length_c                   6.102
_cell_volume                     114.670
_diffrn_ambient_pressure         1.5e+07
_exptl_crystal_density_diffrn    2.549
_cod_database_code               9009241
loop_
_symmetry_equiv_pos_as_xyz
x,y,z
y,x,-z
1/2-y,1/2+x,1/4+z
1/2-x,1/2+y,1/4-z
-x,-y,1/2+z
-y,-x,1/2-z
1/2+y,1/2-x,3/4+z
1/2+x,1/2-y,3/4-z
loop_
_atom_site_label
_atom_site_fract_x
_atom_site_fract_y
_atom_site_fract_z
_atom_site_U_iso_or_equiv
C 0.46000 0.46000 0.00000 0.14600
O 0.26200 0.21800 0.26000 0.08700
loop_
_cod_related_entry_id
_cod_related_entry_database
_cod_related_entry_code
1 ChemSpider 274
