#------------------------------------------------------------------------------
#$Date: 2016-02-18 17:37:37 +0200 (Thu, 18 Feb 2016) $
#$Revision: 176729 $
#$URL: svn://www.crystallography.net/cod/cif/1/51/25/1512523.cif $
#------------------------------------------------------------------------------
#
# This file is available in the Crystallography Open Database (COD),
# http://www.crystallography.net/
#
# All data on this site have been placed in the public domain by the
# contributors.
#
data_1512523
loop_
_publ_author_name
'Lejaeghere, K.'
'Van Speybroeck, V.'
'Van Oost, G.'
'Cottenier, S.'
_publ_section_title
;
 Error Estimates for Solid-State Density-Functional Theory Predictions: An
 Overview by Means of the Ground-State Elemental Crystals
;
_journal_issue                   1
_journal_name_full
'Critical Reviews in Solid State and Materials Sciences'
_journal_page_first              1
_journal_paper_doi               10.1080/10408436.2013.772503
_journal_volume                  39
_journal_year                    2014
_chemical_formula_sum            Na
_space_group_IT_number           166
_symmetry_Int_Tables_number      166
_symmetry_space_group_name_Hall  '-P 3* 2'
_symmetry_space_group_name_H-M   'R -3 m :R'
_cell_angle_alpha                22.92203
_cell_angle_beta                 22.92203
_cell_angle_gamma                22.92203
_cell_formula_units_Z            3
_cell_length_a                   9.41813
_cell_length_b                   9.41813
_cell_length_c                   9.41813
_cell_volume                     111.210
_cod_data_source_file            Na.cif
_cod_data_source_block           VESTA_phase_1
_cod_original_sg_symbol_H-M      'R -3 m'
_cod_struct_determination_method theoretical
_cod_database_code               1512523
loop_
_symmetry_equiv_pos_as_xyz
'x, y, z'
'-x, -y, -z'
'z, x, y'
'-z, -x, -y'
'y, z, x'
'-y, -z, -x'
'-y, -x, -z'
'y, x, z'
'-x, -z, -y'
'x, z, y'
'-z, -y, -x'
'z, y, x'
loop_
_atom_site_label
_atom_site_occupancy
_atom_site_fract_x
_atom_site_fract_y
_atom_site_fract_z
_atom_site_adp_type
_atom_site_B_iso_or_equiv
_atom_site_type_symbol
Na001 1.0 0.000000 0.000000 0.000000 Biso 1.000000 Na
Na002 1.0 0.222223 0.222223 0.222223 Biso 1.000000 Na
